122     4       
12      12      12      13      
0       0       0       0       0       3       2       3       4       
9       8       0       0       0       3       6       10      83      
2       0       0       7       0       3       5       31      35      
10      7       0       0       0       2       72      93      
3       0       0       0       5       3       8       39      50      
4       1       0       0       0       3       7       12      13      
5       0       0       0       4       3       9       11      24      
5       0       0       0       4       3       55      69      115     
7       0       0       0       8       3       17      22      107     
1       9       0       0       0       3       23      26      47      
3       0       0       0       6       2       15      36      
1       0       1       0       0       3       14      18      33      
9       0       0       10      0       2       37      73      
2       0       5       0       0       3       16      20      54      
6       0       0       0       8       3       19      25      75      
10      0       0       0       7       3       27      42      79      
10      0       0       10      0       3       21      29      32      
2       0       0       9       0       2       41      63      
7       0       6       0       0       1       49      
4       0       0       8       0       1       28      
5       0       3       0       0       3       45      63      105     
5       0       0       5       0       3       51      62      69      
7       0       0       3       0       2       31      97      
10      0       1       0       0       3       28      47      89      
5       0       0       1       0       2       47      82      
4       10      0       0       0       1       30      
2       0       0       9       0       3       66      75      102     
9       7       0       0       0       3       29      38      80      
6       0       0       3       0       2       65      82      
10      0       0       0       5       3       44      45      51      
8       0       0       0       6       3       32      34      46      
6       0       0       4       0       2       41      89      
3       4       0       0       0       3       36      50      51      
9       0       7       0       0       2       40      81      
3       7       0       0       0       3       48      52      87      
5       0       0       0       1       3       37      55      60      
5       0       5       0       0       1       43      
8       0       0       4       0       3       64      65      67      
5       0       0       1       0       3       57      86      103     
8       0       8       0       0       3       44      68      70      
2       0       0       2       0       3       53      58      60      
9       0       10      0       0       2       56      68      
2       0       0       0       7       3       53      57      90      
7       0       0       1       0       1       61      
3       0       0       2       0       3       55      60      85      
2       0       0       0       10      3       74      91      96      
3       0       8       0       0       3       64      76      94      
4       0       6       0       0       3       56      58      69      
3       0       0       0       9       2       59      74      
3       0       0       7       0       3       59      78      90      
4       8       0       0       0       3       70      78      81      
4       1       0       0       0       2       111     116     
1       0       0       0       7       3       64      71      72      
1       0       7       0       0       3       59      80      85      
3       0       9       0       0       2       73      95      
7       0       0       0       10      2       74      105     
5       0       0       4       0       3       65      80      88      
10      3       0       0       0       1       100     
5       0       0       8       0       3       66      71      94      
4       0       0       0       5       1       95      
10      0       2       0       0       3       75      84      94      
3       0       0       1       0       3       66      77      111     
4       0       0       3       0       3       67      78      84      
6       0       9       0       0       1       111     
4       10      0       0       0       3       68      70      72      
6       3       0       0       0       3       86      93      97      
7       0       1       0       0       3       79      86      112     
7       0       3       0       0       1       98      
3       0       0       0       6       3       73      82      101     
6       9       0       0       0       1       84      
7       0       0       0       4       1       91      
4       0       0       0       3       2       79      92      
4       0       10      0       0       2       99      118     
9       10      0       0       0       3       99      103     107     
4       0       0       2       0       2       76      100     
8       9       0       0       0       1       87      
3       0       1       0       0       3       87      92      100     
9       0       0       6       0       3       85      109     116     
4       0       7       0       0       2       96      98      
1       0       2       0       0       2       81      102     
10      0       0       9       0       2       95      101     
5       0       4       0       0       3       88      91      97      
5       7       0       0       0       2       89      110     
3       0       0       0       8       3       92      115     119     
3       0       0       1       0       3       88      99      120     
3       0       7       0       0       1       117     
6       0       0       0       10      1       90      
5       1       0       0       0       1       98      
3       0       0       0       4       1       116     
3       2       0       0       0       2       93      96      
7       0       8       0       0       2       103     110     
2       0       9       0       0       1       102     
1       5       0       0       0       1       106     
10      9       0       0       0       3       104     107     108     
8       0       0       9       0       1       108     
7       0       0       1       0       2       104     106     
8       0       0       0       4       1       114     
7       8       0       0       0       1       119     
8       0       0       8       0       1       113     
2       7       0       0       0       2       101     106     
1       0       0       7       0       2       104     105     
10      0       0       0       5       1       109     
9       0       0       9       0       1       108     
7       0       0       4       0       2       109     113     
2       0       0       9       0       1       112     
9       0       9       0       0       1       115     
4       0       0       2       0       1       110     
2       0       6       0       0       1       113     
4       0       5       0       0       2       114     121     
4       0       0       0       2       2       114     117     
9       10      0       0       0       1       112     
8       5       0       0       0       2       118     121     
6       9       0       0       0       1       117     
7       0       0       5       0       1       118     
6       0       3       0       0       1       120     
1       0       7       0       0       1       119     
7       0       0       9       0       1       121     
9       0       0       7       0       1       120     
2       0       0       0       5       1       122     
7       1       0       0       0       1       122     
6       0       3       0       0       1       122     
0       0       0       0       0       0       